*<meta creator='lp_solve v5.5'>
*<meta rows=340>
*<meta columns=100>
*<meta equalities=50>
*<meta integers=0>
*<meta origsense='MIN'>
*
NAME                  
ROWS
 N  R0      
 L  R1      
 L  R2      
 L  R3      
 L  R4      
 L  R5      
 L  R6      
 L  R7      
 L  R8      
 L  R9      
 L  R10     
 L  R11     
 L  R12     
 L  R13     
 L  R14     
 L  R15     
 L  R16     
 L  R17     
 L  R18     
 L  R19     
 L  R20     
 L  R21     
 L  R22     
 L  R23     
 L  R24     
 L  R25     
 L  R26     
 L  R27     
 L  R28     
 L  R29     
 L  R30     
 L  R31     
 L  R32     
 L  R33     
 L  R34     
 L  R35     
 L  R36     
 L  R37     
 L  R38     
 L  R39     
 L  R40     
 L  R41     
 L  R42     
 L  R43     
 L  R44     
 L  R45     
 L  R46     
 L  R47     
 L  R48     
 L  R49     
 L  R50     
 L  R51     
 L  R52     
 L  R53     
 L  R54     
 L  R55     
 L  R56     
 L  R57     
 L  R58     
 L  R59     
 L  R60     
 L  R61     
 L  R62     
 L  R63     
 L  R64     
 L  R65     
 L  R66     
 L  R67     
 L  R68     
 L  R69     
 L  R70     
 L  R71     
 L  R72     
 L  R73     
 L  R74     
 L  R75     
 L  R76     
 L  R77     
 L  R78     
 L  R79     
 L  R80     
 L  R81     
 L  R82     
 L  R83     
 L  R84     
 L  R85     
 L  R86     
 L  R87     
 L  R88     
 L  R89     
 L  R90     
 L  R91     
 L  R92     
 L  R93     
 L  R94     
 L  R95     
 L  R96     
 L  R97     
 L  R98     
 L  R99     
 L  R100    
 L  R101    
 L  R102    
 L  R103    
 L  R104    
 L  R105    
 L  R106    
 L  R107    
 L  R108    
 L  R109    
 L  R110    
 L  R111    
 L  R112    
 L  R113    
 L  R114    
 L  R115    
 L  R116    
 L  R117    
 L  R118    
 L  R119    
 L  R120    
 L  R121    
 L  R122    
 L  R123    
 L  R124    
 L  R125    
 L  R126    
 L  R127    
 L  R128    
 L  R129    
 L  R130    
 L  R131    
 L  R132    
 L  R133    
 L  R134    
 L  R135    
 L  R136    
 L  R137    
 L  R138    
 L  R139    
 L  R140    
 L  R141    
 L  R142    
 L  R143    
 L  R144    
 L  R145    
 L  R146    
 L  R147    
 L  R148    
 L  R149    
 L  R150    
 L  R151    
 L  R152    
 L  R153    
 L  R154    
 L  R155    
 L  R156    
 L  R157    
 L  R158    
 L  R159    
 L  R160    
 L  R161    
 L  R162    
 L  R163    
 L  R164    
 L  R165    
 L  R166    
 L  R167    
 L  R168    
 L  R169    
 L  R170    
 E  R171    
 E  R172    
 L  R173    
 L  R174    
 L  R175    
 L  R176    
 E  R177    
 L  R178    
 L  R179    
 E  R180    
 L  R181    
 E  R182    
 L  R183    
 E  R184    
 L  R185    
 E  R186    
 E  R187    
 E  R188    
 E  R189    
 L  R190    
 L  R191    
 L  R192    
 L  R193    
 L  R194    
 L  R195    
 L  R196    
 E  R197    
 E  R198    
 E  R199    
 L  R200    
 L  R201    
 E  R202    
 L  R203    
 L  R204    
 L  R205    
 L  R206    
 E  R207    
 L  R208    
 E  R209    
 L  R210    
 L  R211    
 E  R212    
 L  R213    
 L  R214    
 E  R215    
 L  R216    
 L  R217    
 L  R218    
 E  R219    
 E  R220    
 L  R221    
 L  R222    
 L  R223    
 E  R224    
 L  R225    
 L  R226    
 E  R227    
 L  R228    
 L  R229    
 L  R230    
 L  R231    
 E  R232    
 E  R233    
 E  R234    
 L  R235    
 E  R236    
 E  R237    
 L  R238    
 L  R239    
 E  R240    
 L  R241    
 L  R242    
 L  R243    
 L  R244    
 E  R245    
 L  R246    
 E  R247    
 E  R248    
 E  R249    
 E  R250    
 L  R251    
 L  R252    
 L  R253    
 L  R254    
 L  R255    
 E  R256    
 L  R257    
 E  R258    
 E  R259    
 E  R260    
 L  R261    
 L  R262    
 L  R263    
 E  R264    
 E  R265    
 E  R266    
 L  R267    
 L  R268    
 L  R269    
 E  R270    
 L  R271    
 L  R272    
 E  R273    
 E  R274    
 E  R275    
 L  R276    
 L  R277    
 L  R278    
 L  R279    
 L  R280    
 E  R281    
 E  R282    
 E  R283    
 L  R284    
 E  R285    
 E  R286    
 L  R287    
 L  R288    
 E  R289    
 L  R290    
 G  R291    
 L  R292    
 G  R293    
 L  R294    
 L  R295    
 L  R296    
 L  R297    
 L  R298    
 L  R299    
 L  R300    
 L  R301    
 G  R302    
 G  R303    
 L  R304    
 L  R305    
 L  R306    
 L  R307    
 L  R308    
 L  R309    
 L  R310    
 L  R311    
 L  R312    
 L  R313    
 G  R314    
 G  R315    
 L  R316    
 L  R317    
 G  R318    
 L  R319    
 L  R320    
 L  R321    
 L  R322    
 L  R323    
 L  R324    
 L  R325    
 L  R326    
 G  R327    
 L  R328    
 L  R329    
 G  R330    
 L  R331    
 L  R332    
 L  R333    
 L  R334    
 G  R335    
 L  R336    
 L  R337    
 L  R338    
 L  R339    
 L  R340    
COLUMNS
    f[0][0]   R0        -0.100000000   R187      1.0000000000
    f[0][0]   R213      1.0000000000   R216      1.0000000000
    f[0][0]   R273      -1.000000000   R312      1.0000000000
    f[0][1]   R0        -0.100000000   R192      1.0000000000
    f[0][1]   R200      1.0000000000   R264      1.0000000000
    f[0][1]   R275      -1.000000000   R322      1.0000000000
    f[0][2]   R0        -0.100000000   R173      1.0000000000
    f[0][2]   R181      1.0000000000   R259      -1.000000000
    f[0][2]   R281      1.0000000000   R333      1.0000000000
    f[0][3]   R0        -0.100000000   R230      1.0000000000
    f[0][3]   R236      1.0000000000   R247      -1.000000000
    f[0][3]   R262      1.0000000000   R331      1.0000000000
    f[0][4]   R0        -0.100000000   R234      -1.000000000
    f[0][4]   R250      1.0000000000   R257      1.0000000000
    f[0][4]   R279      1.0000000000   R317      1.0000000000
    f[0][5]   R0        -0.100000000   R209      1.0000000000
    f[0][5]   R219      -1.000000000   R231      1.0000000000
    f[0][5]   R269      1.0000000000   R321      1.0000000000
    f[0][6]   R0        -0.100000000   R207      -1.000000000
    f[0][6]   R220      1.0000000000   R244      1.0000000000
    f[0][6]   R287      1.0000000000   R306      1.0000000000
    f[0][7]   R0        -0.100000000   R175      1.0000000000
    f[0][7]   R180      1.0000000000   R188      -1.000000000
    f[0][7]   R205      1.0000000000   R296      1.0000000000
    f[0][8]   R0        -0.100000000   R171      -1.000000000
    f[0][8]   R191      1.0000000000   R199      1.0000000000
    f[0][8]   R217      1.0000000000   R340      1.0000000000
    f[0][9]   R0        -0.100000000   R197      -1.000000000
    f[0][9]   R277      1.0000000000   R289      1.0000000000
    f[0][9]   R336      1.0000000000
    f[1][0]   R0        -0.100000000   R177      -1.000000000
    f[1][0]   R272      1.0000000000   R273      1.0000000000
    f[1][0]   R325      1.0000000000
    f[1][1]   R0        -0.100000000   R254      1.0000000000
    f[1][1]   R275      1.0000000000   R286      -1.000000000
    f[1][1]   R311      1.0000000000
    f[1][2]   R0        -0.100000000   R241      1.0000000000
    f[1][2]   R259      1.0000000000   R260      -1.000000000
    f[1][2]   R301      1.0000000000
    f[1][3]   R0        -0.100000000   R225      1.0000000000
    f[1][3]   R245      -1.000000000   R247      1.0000000000
    f[1][3]   R332      1.0000000000
    f[1][4]   R0        -0.100000000   R211      1.0000000000
    f[1][4]   R232      -1.000000000   R234      1.0000000000
    f[1][4]   R319      1.0000000000
    f[1][5]   R0        -0.100000000   R196      1.0000000000
    f[1][5]   R219      1.0000000000   R233      -1.000000000
    f[1][5]   R309      1.0000000000
    f[1][6]   R0        -0.100000000   R174      1.0000000000
    f[1][6]   R207      1.0000000000   R248      -1.000000000
    f[1][6]   R305      1.0000000000
    f[1][7]   R0        -0.100000000   R188      1.0000000000
    f[1][7]   R258      -1.000000000   R263      1.0000000000
    f[1][7]   R294      1.0000000000
    f[1][8]   R0        -0.100000000   R171      1.0000000000
    f[1][8]   R274      -1.000000000   R276      1.0000000000
    f[1][8]   R297      1.0000000000
    f[1][9]   R0        -0.100000000   R197      1.0000000000
    f[1][9]   R203      1.0000000000   R246      1.0000000000
    f[1][9]   R283      -1.000000000   R310      1.0000000000
    f[2][0]   R0        -0.100000000   R177      1.0000000000
    f[2][0]   R185      1.0000000000   R235      1.0000000000
    f[2][0]   R265      -1.000000000   R299      1.0000000000
    f[2][1]   R0        -0.100000000   R189      -1.000000000
    f[2][1]   R218      1.0000000000   R278      1.0000000000
    f[2][1]   R286      1.0000000000   R337      1.0000000000
    f[2][2]   R0        -0.100000000   R172      -1.000000000
    f[2][2]   R206      1.0000000000   R260      1.0000000000
    f[2][2]   R261      1.0000000000   R326      1.0000000000
    f[2][3]   R0        -0.100000000   R201      1.0000000000
    f[2][3]   R224      -1.000000000   R245      1.0000000000
    f[2][3]   R255      1.0000000000   R304      1.0000000000
    f[2][4]   R0        -0.100000000   R183      1.0000000000
    f[2][4]   R212      -1.000000000   R232      1.0000000000
    f[2][4]   R242      1.0000000000   R292      1.0000000000
    f[2][5]   R0        -0.100000000   R229      1.0000000000
    f[2][5]   R233      1.0000000000   R256      -1.000000000
    f[2][5]   R288      1.0000000000   R329      1.0000000000
    f[2][6]   R0        -0.100000000   R204      1.0000000000
    f[2][6]   R240      -1.000000000   R248      1.0000000000
    f[2][6]   R268      1.0000000000   R316      1.0000000000
    f[2][7]   R0        -0.100000000   R193      1.0000000000
    f[2][7]   R251      1.0000000000   R258      1.0000000000
    f[2][7]   R285      -1.000000000   R324      1.0000000000
    f[2][8]   R0        -0.100000000   R178      1.0000000000
    f[2][8]   R238      1.0000000000   R270      -1.000000000
    f[2][8]   R274      1.0000000000   R308      1.0000000000
    f[2][9]   R0        -0.100000000   R223      1.0000000000
    f[2][9]   R283      1.0000000000   R334      1.0000000000
    f[3][0]   R0        -0.100000000   R208      1.0000000000
    f[3][0]   R265      1.0000000000   R320      1.0000000000
    f[3][1]   R0        -0.100000000   R189      1.0000000000
    f[3][1]   R195      1.0000000000   R307      1.0000000000
    f[3][2]   R0        -0.100000000   R172      1.0000000000
    f[3][2]   R176      1.0000000000   R295      1.0000000000
    f[3][3]   R0        -0.100000000   R224      1.0000000000
    f[3][3]   R290      1.0000000000   R338      1.0000000000
    f[3][4]   R0        -0.100000000   R212      1.0000000000
    f[3][4]   R271      1.0000000000   R323      1.0000000000
    f[3][5]   R0        -0.100000000   R253      1.0000000000
    f[3][5]   R256      1.0000000000   R313      1.0000000000
    f[3][6]   R0        -0.100000000   R240      1.0000000000
    f[3][6]   R243      1.0000000000   R300      1.0000000000
    f[3][7]   R0        -0.100000000   R226      1.0000000000
    f[3][7]   R285      1.0000000000   R328      1.0000000000
    f[3][8]   R0        -0.100000000   R214      1.0000000000
    f[3][8]   R270      1.0000000000   R339      1.0000000000
    f[3][9]   R0        1.0000000000   R198      1.0000000000
    l[1][10]  R0        1.0000000000   R194      -1.000000000
    l[1][10]  R215      -1.000000000   R227      1.0000000000
    l[1][1]   R0        1.0000000000   R179      -1.000000000
    l[1][1]   R202      -1.000000000   R215      1.0000000000
    l[1][2]   R0        1.0000000000   R186      -1.000000000
    l[1][2]   R202      1.0000000000   R221      -1.000000000
    l[1][3]   R0        1.0000000000   R186      1.0000000000
    l[1][3]   R210      -1.000000000   R282      -1.000000000
    l[1][4]   R0        1.0000000000   R252      -1.000000000
    l[1][4]   R266      -1.000000000   R282      1.0000000000
    l[1][5]   R0        1.0000000000   R239      -1.000000000
    l[1][5]   R249      -1.000000000   R266      1.0000000000
    l[1][6]   R0        1.0000000000   R237      -1.000000000
    l[1][6]   R249      1.0000000000   R284      -1.000000000
    l[1][7]   R0        1.0000000000   R182      -1.000000000
    l[1][7]   R237      1.0000000000   R267      -1.000000000
    l[1][8]   R0        1.0000000000   R182      1.0000000000
    l[1][8]   R190      -1.000000000   R198      -1.000000000
    l[1][9]   R0        1.0000000000   R199      1.0000000000
    n[0][10]  R0        1.0000000000   R184      1.0000000000
    n[0][10]  R187      -1.000000000   R213      -0.335280000
    n[0][1]   R0        1.0000000000   R187      1.0000000000
    n[0][1]   R192      -0.335280000   R264      -1.000000000
    n[0][2]   R0        1.0000000000   R173      -0.335280000
    n[0][2]   R264      1.0000000000   R281      -1.000000000
    n[0][3]   R0        1.0000000000   R230      -0.335280000
    n[0][3]   R236      -1.000000000   R281      1.0000000000
    n[0][4]   R0        1.0000000000   R236      1.0000000000
    n[0][4]   R250      -1.000000000   R257      -0.335280000
    n[0][5]   R0        1.0000000000   R209      -1.000000000
    n[0][5]   R250      1.0000000000   R269      -0.335280000
    n[0][6]   R0        1.0000000000   R209      1.0000000000
    n[0][6]   R220      -1.000000000   R287      -0.335280000
    n[0][7]   R0        1.0000000000   R175      -0.335280000
    n[0][7]   R180      -1.000000000   R220      1.0000000000
    n[0][8]   R0        1.0000000000   R180      1.0000000000
    n[0][8]   R191      -0.335280000   R199      -1.000000000
    n[0][9]   R0        1.0000000000   R171      1.0000000000
    n[1][10]  R0        1.0000000000   R216      0.0838200000
    n[1][10]  R273      -1.000000000   R289      1.0000000000
    n[1][1]   R0        1.0000000000   R200      0.0838200000
    n[1][1]   R273      1.0000000000   R275      -1.000000000
    n[1][2]   R0        1.0000000000   R181      0.0838200000
    n[1][2]   R259      -1.000000000   R275      1.0000000000
    n[1][3]   R0        1.0000000000   R247      -1.000000000
    n[1][3]   R259      1.0000000000   R262      0.0838200000
    n[1][4]   R0        1.0000000000   R234      -1.000000000
    n[1][4]   R247      1.0000000000   R279      0.0838200000
    n[1][5]   R0        1.0000000000   R219      -1.000000000
    n[1][5]   R231      0.0838200000   R234      1.0000000000
    n[1][6]   R0        1.0000000000   R207      -1.000000000
    n[1][6]   R219      1.0000000000   R244      0.0838200000
    n[1][7]   R0        1.0000000000   R188      -1.000000000
    n[1][7]   R205      0.0838200000   R207      1.0000000000
    n[1][8]   R0        1.0000000000   R171      -1.000000000
    n[1][8]   R188      1.0000000000   R217      0.0838200000
    n[1][9]   R0        1.0000000000   R274      1.0000000000
    n[2][10]  R0        1.0000000000   R177      -1.000000000
    n[2][10]  R197      1.0000000000   R235      -0.335280000
    n[2][10]  R272      0.0838200000
    n[2][1]   R0        1.0000000000   R177      1.0000000000
    n[2][1]   R254      0.0838200000   R278      -0.335280000
    n[2][1]   R286      -1.000000000
    n[2][2]   R0        1.0000000000   R241      0.0838200000
    n[2][2]   R260      -1.000000000   R261      -0.335280000
    n[2][2]   R286      1.0000000000
    n[2][3]   R0        1.0000000000   R201      -0.335280000
    n[2][3]   R225      0.0838200000   R245      -1.000000000
    n[2][3]   R260      1.0000000000
    n[2][4]   R0        1.0000000000   R183      -0.335280000
    n[2][4]   R211      0.0838200000   R232      -1.000000000
    n[2][4]   R245      1.0000000000
    n[2][5]   R0        1.0000000000   R196      0.0838200000
    n[2][5]   R229      -0.335280000   R232      1.0000000000
    n[2][5]   R233      -1.000000000
    n[2][6]   R0        1.0000000000   R174      0.0838200000
    n[2][6]   R204      -0.335280000   R233      1.0000000000
    n[2][6]   R248      -1.000000000
    n[2][7]   R0        1.0000000000   R248      1.0000000000
    n[2][7]   R251      -0.335280000   R258      -1.000000000
    n[2][7]   R263      0.0838200000
    n[2][8]   R0        1.0000000000   R238      -0.335280000
    n[2][8]   R258      1.0000000000   R274      -1.000000000
    n[2][8]   R276      0.0838200000
    n[2][9]   R0        1.0000000000   R270      1.0000000000
    n[3][10]  R0        1.0000000000   R185      0.0838200000
    n[3][10]  R208      -0.335280000   R265      -1.000000000
    n[3][10]  R283      1.0000000000
    n[3][1]   R0        1.0000000000   R189      -1.000000000
    n[3][1]   R195      -0.335280000   R218      0.0838200000
    n[3][1]   R265      1.0000000000
    n[3][2]   R0        1.0000000000   R172      -1.000000000
    n[3][2]   R176      -0.335280000   R189      1.0000000000
    n[3][2]   R206      0.0838200000
    n[3][3]   R0        1.0000000000   R172      1.0000000000
    n[3][3]   R224      -1.000000000   R255      0.0838200000
    n[3][3]   R290      -0.335280000
    n[3][4]   R0        1.0000000000   R212      -1.000000000
    n[3][4]   R224      1.0000000000   R242      0.0838200000
    n[3][4]   R271      -0.335280000
    n[3][5]   R0        1.0000000000   R212      1.0000000000
    n[3][5]   R253      -0.335280000   R256      -1.000000000
    n[3][5]   R288      0.0838200000
    n[3][6]   R0        1.0000000000   R240      -1.000000000
    n[3][6]   R243      -0.335280000   R256      1.0000000000
    n[3][6]   R268      0.0838200000
    n[3][7]   R0        1.0000000000   R193      0.0838200000
    n[3][7]   R226      -0.335280000   R240      1.0000000000
    n[3][7]   R285      -1.000000000
    n[3][8]   R0        1.0000000000   R178      0.0838200000
    n[3][8]   R214      -0.335280000   R270      -1.000000000
    n[3][8]   R285      1.0000000000
    n[3][9]   R0        -0.100000000   R227      1.0000000000
    n[3][9]   R228      0.0838200000   R280      1.0000000000
    n[3][9]   R289      -1.000000000   R318      1.0000000000
    r[1][0]   R0        -0.100000000   R194      1.0000000000
    r[1][0]   R215      1.0000000000   R216      0.0838200000
    r[1][0]   R273      -1.000000000   R330      1.0000000000
    r[1][1]   R0        -0.100000000   R179      1.0000000000
    r[1][1]   R200      0.0838200000   R202      1.0000000000
    r[1][1]   R275      -1.000000000   R293      1.0000000000
    r[1][2]   R0        -0.100000000   R181      0.0838200000
    r[1][2]   R186      1.0000000000   R221      1.0000000000
    r[1][2]   R259      -1.000000000   R303      1.0000000000
    r[1][3]   R0        -0.100000000   R210      1.0000000000
    r[1][3]   R247      -1.000000000   R262      0.0838200000
    r[1][3]   R282      1.0000000000   R315      1.0000000000
    r[1][4]   R0        -0.100000000   R234      -1.000000000
    r[1][4]   R252      1.0000000000   R266      1.0000000000
    r[1][4]   R279      0.0838200000   R327      1.0000000000
    r[1][5]   R0        -0.100000000   R219      -1.000000000
    r[1][5]   R231      0.0838200000   R239      1.0000000000
    r[1][5]   R249      1.0000000000   R335      1.0000000000
    r[1][6]   R0        -0.100000000   R207      -1.000000000
    r[1][6]   R237      1.0000000000   R244      0.0838200000
    r[1][6]   R284      1.0000000000   R291      1.0000000000
    r[1][7]   R0        -0.100000000   R182      1.0000000000
    r[1][7]   R188      -1.000000000   R205      0.0838200000
    r[1][7]   R267      1.0000000000   R302      1.0000000000
    r[1][8]   R0        -0.100000000   R171      -1.000000000
    r[1][8]   R190      1.0000000000   R198      1.0000000000
    r[1][8]   R217      0.0838200000   R314      1.0000000000
    r[1][9]   R0        7.109954E106   R171      7.109954E106
    r[1][9]   R172      7.109954E106   R173      7.109954E106
    r[1][9]   R174      7.109954E106   R175      7.109954E106
    r[1][9]   R176      7.109954E106   R177      7.109954E106
    r[1][9]   R178      7.109954E106   R179      7.109954E106
    r[1][9]   R180      7.109954E106   R181      7.109954E106
    r[1][9]   R182      7.109954E106   R183      7.109954E106
    r[1][9]   R184      7.109954E106   R185      7.109954E106
    r[1][9]   R186      7.109954E106   R187      7.109954E106
    r[1][9]   R188      7.109954E106   R189      7.109954E106
    r[1][9]   R190      7.109954E106   R191      7.109954E106
    r[1][9]   R192      7.109954E106   R193      7.109954E106
    r[1][9]   R194      7.109954E106   R195      7.109954E106
    r[1][9]   R196      7.109954E106   R197      7.109954E106
    r[1][9]   R198      7.109954E106   R199      7.109954E106
    r[1][9]   R200      7.109954E106   R201      7.109954E106
    r[1][9]   R202      7.109954E106   R203      7.109954E106
    r[1][9]   R204      7.109954E106   R205      7.109954E106
    r[1][9]   R206      7.109954E106   R207      7.109954E106
    r[1][9]   R208      7.109954E106   R209      7.109954E106
    r[1][9]   R210      7.109954E106   R211      7.109954E106
    r[1][9]   R212      7.109954E106   R213      7.109954E106
    r[1][9]   R214      7.109954E106   R215      7.109954E106
    r[1][9]   R216      7.109954E106   R217      7.109954E106
    r[1][9]   R218      7.109954E106   R219      7.109954E106
    r[1][9]   R220      7.109954E106   R221      7.109954E106
    r[1][9]   R222      7.109954E106   R223      7.109954E106
    r[1][9]   R224      7.109954E106   R225      7.109954E106
    r[1][9]   R226      7.109954E106   R227      7.109954E106
    r[1][9]   R228      7.109954E106   R229      7.109954E106
    r[1][9]   R230      7.109954E106   R231      7.109954E106
    r[1][9]   R232      7.109954E106   R233      7.109954E106
    r[1][9]   R234      7.109954E106   R235      7.109954E106
    r[1][9]   R236      7.109954E106   R237      7.109954E106
    r[1][9]   R238      7.109954E106   R239      7.109954E106
    r[1][9]   R240      7.109954E106   R241      7.109954E106
    r[1][9]   R242      7.109954E106   R243      7.109954E106
    r[1][9]   R244      7.109954E106   R245      7.109954E106
    r[1][9]   R246      7.109954E106   R247      7.109954E106
    r[1][9]   R248      7.109954E106   R249      7.109954E106
    r[1][9]   R250      7.109954E106   R251      7.109954E106
    r[1][9]   R252      7.109954E106   R253      7.109954E106
    r[1][9]   R254      7.109954E106   R255      7.109954E106
    r[1][9]   R256      7.109954E106   R257      7.109954E106
    r[1][9]   R258      7.109954E106   R259      7.109954E106
    r[1][9]   R260      7.109954E106   R261      7.109954E106
    r[1][9]   R262      7.109954E106   R263      7.109954E106
    r[1][9]   R264      7.109954E106   R265      7.109954E106
    r[1][9]   R266      7.109954E106   R267      7.109954E106
    r[1][9]   R268      7.109954E106   R269      7.109954E106
    r[1][9]   R270      7.109954E106   R271      7.109954E106
    r[1][9]   R272      7.109954E106   R273      7.109954E106
    r[1][9]   R274      7.109954E106   R275      7.109954E106
    r[1][9]   R276      7.109954E106   R277      7.109954E106
    r[1][9]   R278      7.109954E106   R279      7.109954E106
    r[1][9]   R280      7.109954E106   R281      7.109954E106
    r[1][9]   R282      7.109954E106   R283      7.109954E106
    r[1][9]   R284      7.109954E106   R285      7.109954E106
    r[1][9]   R286      7.109954E106   R287      7.109954E106
    r[1][9]   R288      7.109954E106   R289      7.109954E106
    r[1][9]   R290      7.109954E106   R291      7.109954E106
    r[1][9]   R292      7.109954E106   R293      7.109954E106
    r[1][9]   R294      7.109954E106   R295      7.109954E106
    r[1][9]   R296      7.109954E106   R297      7.109954E106
    r[1][9]   R298      7.109954E106   R299      7.109954E106
    r[1][9]   R300      7.109954E106   R301      7.109954E106
    r[1][9]   R302      7.109954E106   R303      7.109954E106
    r[1][9]   R304      7.109954E106   R305      7.109954E106
    r[1][9]   R306      7.109954E106   R307      7.109954E106
    r[1][9]   R308      7.109954E106   R309      7.109954E106
    r[1][9]   R310      7.109954E106   R311      7.109954E106
    r[1][9]   R312      7.109954E106   R313      7.109954E106
    r[1][9]   R314      7.109954E106   R315      7.109954E106
    r[1][9]   R316      7.109954E106   R317      7.109954E106
    r[1][9]   R318      7.109954E106   R319      7.109954E106
    r[1][9]   R320      7.109954E106   R321      7.109954E106
    r[1][9]   R322      7.109954E106   R323      7.109954E106
    r[1][9]   R324      7.109954E106   R325      7.109954E106
    r[1][9]   R326      7.109954E106   R327      7.109954E106
    r[1][9]   R328      7.109954E106   R329      7.109954E106
    r[1][9]   R330      7.109954E106   R331      7.109954E106
    r[1][9]   R332      7.109954E106   R333      7.109954E106
    r[1][9]   R334      7.109954E106   R335      7.109954E106
    r[1][9]   R336      7.109954E106   R337      7.109954E106
    r[1][9]   R338      7.109954E106   R339      7.109954E106
    r[1][9]   R340      7.109954E106
RHS
    RHS       R174      3143.2500000   R178      3143.2500000
    RHS       R179      0.5555000000   R180      0.1390000000
    RHS       R181      3143.2500000   R182      0.5555000000
    RHS       R184      0.1390000000   R185      3143.2500000
    RHS       R186      0.5555000000   R187      0.1390000000
    RHS       R190      0.5555000000   R193      3143.2500000
    RHS       R194      0.5555000000   R196      3143.2500000
    RHS       R198      0.5555000000   R199      0.1390000000
    RHS       R200      3143.2500000   R202      0.5555000000
    RHS       R203      3143.2500000   R205      3143.2500000
    RHS       R206      3143.2500000   R209      0.1390000000
    RHS       R210      0.5555000000   R211      3143.2500000
    RHS       R215      0.5555000000   R216      3143.2500000
    RHS       R217      3143.2500000   R218      3143.2500000
    RHS       R220      0.1390000000   R221      0.5555000000
    RHS       R225      3143.2500000   R227      0.5555000000
    RHS       R228      3143.2500000   R231      3143.2500000
    RHS       R236      0.1390000000   R237      0.5555000000
    RHS       R239      0.5555000000   R241      3143.2500000
    RHS       R242      3143.2500000   R244      3143.2500000
    RHS       R249      0.5555000000   R250      0.1390000000
    RHS       R252      0.5555000000   R254      3143.2500000
    RHS       R255      3143.2500000   R262      3143.2500000
    RHS       R263      3143.2500000   R264      0.1390000000
    RHS       R266      0.5555000000   R267      0.5555000000
    RHS       R268      3143.2500000   R272      3143.2500000
    RHS       R276      3143.2500000   R277      3143.2500000
    RHS       R279      3143.2500000   R280      0.5555000000
    RHS       R281      0.1390000000   R282      0.5555000000
    RHS       R284      0.5555000000   R288      3143.2500000
    RHS       R292      0.4166650000   R294      2.5000000000
    RHS       R295      2.5000000000   R296      2.5000000000
    RHS       R297      2.5000000000   R298      2.5000000000
    RHS       R299      0.4166650000   R300      2.5000000000
    RHS       R301      2.5000000000   R304      0.4166650000
    RHS       R305      2.5000000000   R306      2.5000000000
    RHS       R307      2.5000000000   R308      0.4166650000
    RHS       R309      2.5000000000   R310      0.4166650000
    RHS       R311      2.5000000000   R312      2.5000000000
    RHS       R313      2.5000000000   R316      0.4166650000
    RHS       R317      2.5000000000   R319      2.5000000000
    RHS       R320      2.5000000000   R321      2.5000000000
    RHS       R322      2.5000000000   R323      2.5000000000
    RHS       R324      0.4166650000   R325      2.5000000000
    RHS       R326      0.4166650000   R328      2.5000000000
    RHS       R329      0.4166650000   R331      2.5000000000
    RHS       R332      2.5000000000   R333      2.5000000000
    RHS       R334      2.5000000000   R336      2.5000000000
    RHS       R337      0.4166650000   R338      2.5000000000
    RHS       R339      2.5000000000   R340      2.5000000000
ENDATA
